(set-info :smt-lib-version 2.6)
(set-logic LIA)
(set-info
  :source |
 Generated by PSyCO 0.1
 More info in N. P. Lopes and J. Monteiro. Weakest Precondition Synthesis for
 Compiler Optimizations, VMCAI'14.
|)
(set-info :category "industrial")
(set-info :status sat)
(declare-fun W_S1_V5 () Bool)
(declare-fun W_S2_V5 () Bool)
(declare-fun W_S1_V4 () Bool)
(declare-fun W_S2_V4 () Bool)
(declare-fun W_S2_V1 () Bool)
(declare-fun W_S1_V3 () Bool)
(declare-fun W_S2_V3 () Bool)
(declare-fun W_S1_V2 () Bool)
(declare-fun W_S2_V2 () Bool)
(declare-fun R_S1_V5 () Bool)
(declare-fun R_S1_V4 () Bool)
(declare-fun R_S1_V1 () Bool)
(declare-fun R_S1_V3 () Bool)
(declare-fun R_S1_V2 () Bool)
(declare-fun R_S2_V5 () Bool)
(declare-fun R_S2_V4 () Bool)
(declare-fun R_S2_V1 () Bool)
(declare-fun R_S2_V3 () Bool)
(declare-fun R_S2_V2 () Bool)
(declare-fun R_E1_V5 () Bool)
(declare-fun R_E1_V4 () Bool)
(declare-fun R_E1_V3 () Bool)
(declare-fun R_E1_V2 () Bool)
(declare-fun W_S1_V1 () Bool)
(declare-fun R_E1_V1 () Bool)
(assert
 (let
 (($x3284
   (forall
    ((V2_0 Int) (V3_0 Int) 
     (V4_0 Int) (V5_0 Int) 
     (S1_V3_!3243 Int) (S1_V3_!3253 Int) 
     (S1_V3_!3264 Int) (E1_!3241 Int) 
     (E1_!3262 Int) (E1_!3268 Int) 
     (S1_V2_!3242 Int) (S1_V2_!3252 Int) 
     (S1_V2_!3263 Int) (S2_V1_!3249 Int) 
     (S2_V1_!3259 Int) (S2_V1_!3271 Int) 
     (S2_V1_!3276 Int) (S1_V5_!3246 Int) 
     (S1_V5_!3256 Int) (S1_V5_!3267 Int) 
     (S2_V2_!3247 Int) (S2_V2_!3257 Int) 
     (S2_V2_!3269 Int) (S2_V2_!3274 Int) 
     (S1_V4_!3245 Int) (S1_V4_!3255 Int) 
     (S1_V4_!3266 Int) (S2_V3_!3248 Int) 
     (S2_V3_!3258 Int) (S2_V3_!3270 Int) 
     (S2_V3_!3275 Int) (S2_V4_!3250 Int) 
     (S2_V4_!3260 Int) (S2_V4_!3272 Int) 
     (S2_V4_!3277 Int) (S2_V5_!3251 Int) 
     (S2_V5_!3261 Int) (S2_V5_!3273 Int) 
     (S2_V5_!3278 Int) (S1_V1_!3244 Int) 
     (S1_V1_!3254 Int) (S1_V1_!3265 Int))
    (let ((?x3070 (ite W_S1_V5 S1_V5_!3246 V5_0)))
    (let ((?x2973 (ite W_S2_V5 S2_V5_!3251 ?x3070)))
    (let (($x2409 (= ?x2973 V5_0)))
    (let (($x3191 (= S1_V5_!3256 S1_V5_!3267)))
    (let (($x2320 (ite W_S1_V5 $x3191 $x2409)))
    (let (($x2781 (ite W_S2_V5 (= S2_V5_!3261 S2_V5_!3278) $x2320)))
    (let ((?x3092 (ite W_S1_V4 S1_V4_!3245 V4_0)))
    (let ((?x3224 (ite W_S2_V4 S2_V4_!3250 ?x3092)))
    (let (($x2727 (= ?x3224 V4_0)))
    (let (($x2763 (ite W_S1_V4 (= S1_V4_!3255 S1_V4_!3266) $x2727)))
    (let (($x3278 (= S2_V4_!3260 S2_V4_!3277)))
    (let (($x3436 (ite W_S2_V4 $x3278 $x2763)))
    (let (($x3225 (= S2_V1_!3259 S2_V1_!3276)))
    (let
    (($x3285
      (ite W_S2_V1 $x3225
      (= (ite W_S2_V1 S2_V1_!3249 E1_!3241)
      (+ 0 (ite W_S2_V1 S2_V1_!3271 E1_!3268))))))
    (let ((?x3295 (ite W_S1_V3 S1_V3_!3243 V3_0)))
    (let ((?x3180 (ite W_S2_V3 S2_V3_!3248 ?x3295)))
    (let (($x2804 (= ?x3180 V3_0)))
    (let (($x2508 (ite W_S1_V3 (= S1_V3_!3253 S1_V3_!3264) $x2804)))
    (let (($x3287 (= S2_V3_!3258 S2_V3_!3275)))
    (let (($x2131 (ite W_S2_V3 $x3287 $x2508)))
    (let ((?x3110 (ite W_S1_V2 S1_V2_!3242 V2_0)))
    (let ((?x3354 (ite W_S2_V2 S2_V2_!3247 ?x3110)))
    (let (($x3186 (= ?x3354 V2_0)))
    (let (($x3047 (= S1_V2_!3252 S1_V2_!3263)))
    (let (($x2995 (ite W_S1_V2 $x3047 $x3186)))
    (let (($x2952 (= S2_V2_!3257 S2_V2_!3274)))
    (let (($x2536 (ite W_S2_V2 $x2952 $x2995)))
    (let ((?x2974 (ite W_S2_V1 S2_V1_!3271 E1_!3268)))
    (let ((?x2603 (+ 1 ?x2974)))
    (let ((?x2627 (ite W_S2_V1 S2_V1_!3276 ?x2603)))
    (let ((?x2846 (ite W_S2_V1 S2_V1_!3249 E1_!3241)))
    (let ((?x3458 (+ 1 ?x2846)))
    (let ((?x3133 (ite W_S2_V1 S2_V1_!3259 ?x3458)))
    (let
    (($x3593
      (and (not (<= V2_0 E1_!3241)) 
      (not (<= ?x3354 ?x3458))
      (>= ?x3133
      (+ (- 1) (ite W_S2_V2 S2_V2_!3257 (ite W_S1_V2 S1_V2_!3252 ?x3354))))
      (not (<= V2_0 E1_!3262))
      (>= E1_!3262 (+ (- 1) (ite W_S1_V2 S1_V2_!3263 V2_0)))
      (not (<= (ite W_S1_V2 S1_V2_!3263 V2_0) E1_!3268))
      (not
      (<= (ite W_S2_V2 S2_V2_!3269 (ite W_S1_V2 S1_V2_!3263 V2_0)) ?x2603))
      (>= ?x2627
      (+ (- 1) (ite W_S2_V2 S2_V2_!3274 (ite W_S1_V2 S1_V2_!3263 V2_0)))))))
    (let (($x2849 (= S1_V1_!3254 S1_V1_!3265)))
    (let (($x112 (not R_S1_V5)))
    (let (($x2904 (or $x112 $x2409)))
    (let (($x110 (not R_S1_V4)))
    (let (($x3199 (or $x110 $x2727)))
    (let (($x106 (not R_S1_V3)))
    (let (($x3413 (or $x106 $x2804)))
    (let (($x104 (not R_S1_V2)))
    (let (($x3108 (or $x104 $x3186)))
    (let
    (($x3065
      (and $x3108 $x3413 (or (not R_S1_V1) (= ?x2846 (+ (- 1) E1_!3262)))
      $x3199 $x2904)))
    (let (($x3437 (not $x3065)))
    (let (($x3049 (not (or (not R_S1_V1) (= E1_!3241 E1_!3262)))))
    (let (($x2441 (or $x3049 (= S1_V1_!3244 S1_V1_!3265))))
    (let (($x2544 (= S1_V1_!3244 S1_V1_!3254)))
    (let (($x2546 (= V5_0 ?x2973)))
    (let (($x2644 (or $x112 $x2546)))
    (let (($x3173 (= V4_0 ?x3224)))
    (let (($x2129 (or $x110 $x3173)))
    (let (($x3512 (= V3_0 ?x3180)))
    (let (($x3230 (or $x106 $x3512)))
    (let (($x3364 (= V2_0 ?x3354)))
    (let (($x3451 (or $x104 $x3364)))
    (let
    (($x3486
      (or
      (not
      (and $x3451 $x3230 (or (not R_S1_V1) (= E1_!3241 ?x3458)) $x2129
      $x2644)) $x2544)))
    (let (($x2510 (= S2_V5_!3278 S2_V5_!3261)))
    (let ((?x2465 (ite W_S1_V5 S1_V5_!3256 ?x2973)))
    (let ((?x2518 (ite W_S1_V5 S1_V5_!3267 V5_0)))
    (let ((?x2190 (ite W_S2_V5 S2_V5_!3273 ?x2518)))
    (let (($x130 (not R_S2_V5)))
    (let (($x2757 (or $x130 (= ?x2190 ?x2465))))
    (let ((?x2445 (ite W_S1_V4 S1_V4_!3255 ?x3224)))
    (let ((?x3057 (ite W_S1_V4 S1_V4_!3266 V4_0)))
    (let ((?x2113 (ite W_S2_V4 S2_V4_!3272 ?x3057)))
    (let (($x128 (not R_S2_V4)))
    (let (($x3145 (or $x128 (= ?x2113 ?x2445))))
    (let (($x126 (not R_S2_V1)))
    (let
    (($x2920
      (or $x126
      (ite W_S2_V1 (= S2_V1_!3271 S2_V1_!3249) (= E1_!3268 E1_!3241)))))
    (let ((?x3454 (ite W_S1_V3 S1_V3_!3253 ?x3180)))
    (let ((?x3415 (ite W_S1_V3 S1_V3_!3264 V3_0)))
    (let ((?x2891 (ite W_S2_V3 S2_V3_!3270 ?x3415)))
    (let (($x124 (not R_S2_V3)))
    (let (($x3340 (or $x124 (= ?x2891 ?x3454))))
    (let ((?x3378 (ite W_S1_V2 S1_V2_!3252 ?x3354)))
    (let ((?x3507 (ite W_S1_V2 S1_V2_!3263 V2_0)))
    (let ((?x3418 (ite W_S2_V2 S2_V2_!3269 ?x3507)))
    (let (($x122 (not R_S2_V2)))
    (let (($x2452 (or $x122 (= ?x3418 ?x3378))))
    (let (($x2954 (= S2_V5_!3273 S2_V5_!3278)))
    (let (($x2732 (or $x130 (= ?x2518 ?x2190))))
    (let (($x2180 (or $x128 (= ?x3057 ?x2113))))
    (let (($x3456 (or $x124 (= ?x3415 ?x2891))))
    (let (($x3194 (or $x122 (= ?x3507 ?x3418))))
    (let
    (($x2969
      (not (and $x3194 $x3456 (or $x126 (= E1_!3268 ?x2603)) $x2180 $x2732))))
    (let (($x2371 (= S2_V5_!3273 S2_V5_!3261)))
    (let
    (($x3072 (or $x130 (ite W_S1_V5 (= S1_V5_!3267 S1_V5_!3256) $x2546))))
    (let
    (($x3406 (or $x128 (ite W_S1_V4 (= S1_V4_!3266 S1_V4_!3255) $x3173))))
    (let
    (($x3489 (or $x124 (ite W_S1_V3 (= S1_V3_!3264 S1_V3_!3253) $x3512))))
    (let
    (($x3543 (or $x122 (ite W_S1_V2 (= S1_V2_!3263 S1_V2_!3252) $x3364))))
    (let
    (($x2516
      (not (and $x3543 $x3489 (or $x126 (= E1_!3268 ?x3458)) $x3406 $x3072))))
    (let (($x2793 (= S2_V5_!3273 S2_V5_!3251)))
    (let (($x2725 (= S1_V5_!3267 S1_V5_!3246)))
    (let (($x2568 (not W_S1_V5)))
    (let (($x3610 (or $x130 $x2568 $x2725)))
    (let (($x2581 (= S1_V4_!3266 S1_V4_!3245)))
    (let (($x2745 (not W_S1_V4)))
    (let (($x3187 (or $x128 $x2745 $x2581)))
    (let (($x3408 (= E1_!3268 E1_!3241)))
    (let (($x2678 (or $x126 $x3408)))
    (let (($x3313 (= S1_V3_!3264 S1_V3_!3243)))
    (let (($x2871 (not W_S1_V3)))
    (let (($x3600 (or $x124 $x2871 $x3313)))
    (let (($x2558 (not W_S1_V2)))
    (let (($x2713 (or $x122 $x2558 (= S1_V2_!3263 S1_V2_!3242))))
    (let (($x3114 (= S2_V5_!3251 S2_V5_!3278)))
    (let (($x2424 (or $x130 (= ?x3070 ?x2190))))
    (let (($x2352 (or $x128 (= ?x3092 ?x2113))))
    (let (($x2970 (or $x124 (= ?x3295 ?x2891))))
    (let (($x3399 (or $x122 (= ?x3110 ?x3418))))
    (let
    (($x3416
      (not (and $x3399 $x2970 (or $x126 (= E1_!3241 ?x2603)) $x2352 $x2424))))
    (let (($x3411 (= S2_V5_!3251 S2_V5_!3261)))
    (let
    (($x3457 (or $x130 (ite W_S1_V5 (= S1_V5_!3246 S1_V5_!3256) $x2546))))
    (let
    (($x3449 (or $x128 (ite W_S1_V4 (= S1_V4_!3245 S1_V4_!3255) $x3173))))
    (let
    (($x2395 (or $x124 (ite W_S1_V3 (= S1_V3_!3243 S1_V3_!3253) $x3512))))
    (let
    (($x2137 (or $x122 (ite W_S1_V2 (= S1_V2_!3242 S1_V2_!3252) $x3364))))
    (let
    (($x2878
      (not (and $x2137 $x2395 (or $x126 (= E1_!3241 ?x3458)) $x3449 $x3457))))
    (let (($x3468 (or $x130 (= ?x2465 ?x2190))))
    (let (($x3269 (or $x128 (= ?x2445 ?x2113))))
    (let
    (($x3038
      (or $x126
      (ite W_S2_V1 (= S2_V1_!3249 S2_V1_!3271) (= E1_!3241 E1_!3268)))))
    (let (($x3425 (or $x124 (= ?x3454 ?x2891))))
    (let (($x3462 (or $x122 (= ?x3378 ?x3418))))
    (let (($x3492 (not (and $x3462 $x3425 $x3038 $x3269 $x3468))))
    (let (($x3327 (= S2_V4_!3260 S2_V4_!3250)))
    (let
    (($x3547 (or $x130 (ite W_S1_V5 (= S1_V5_!3256 S1_V5_!3246) $x2409))))
    (let
    (($x3646 (or $x128 (ite W_S1_V4 (= S1_V4_!3255 S1_V4_!3245) $x2727))))
    (let
    (($x2759 (or $x124 (ite W_S1_V3 (= S1_V3_!3253 S1_V3_!3243) $x2804))))
    (let
    (($x3551 (or $x122 (ite W_S1_V2 (= S1_V2_!3252 S1_V2_!3242) $x3186))))
    (let
    (($x3465
      (or
      (not
      (and $x3551 $x2759 (or $x126 (= ?x2846 (+ (- 1) E1_!3241))) $x3646
      $x3547)) $x3327)))
    (let (($x3089 (= S2_V3_!3275 S2_V3_!3270)))
    (let (($x3263 (or $x130 (= ?x2190 ?x2518))))
    (let (($x3216 (or $x128 (= ?x2113 ?x3057))))
    (let (($x3044 (or $x124 (= ?x2891 ?x3415))))
    (let (($x2535 (or $x122 (= ?x3418 ?x3507))))
    (let
    (($x3129
      (or
      (not
      (and $x2535 $x3044 (or $x126 (= ?x2974 (+ (- 1) E1_!3268))) $x3216
      $x3263)) $x3089)))
    (let (($x2515 (= S2_V3_!3258 S2_V3_!3270)))
    (let (($x2746 (or $x130 $x2320)))
    (let (($x3607 (or $x128 $x2763)))
    (let (($x2599 (or $x124 $x2508)))
    (let (($x3496 (or $x122 $x2995)))
    (let
    (($x2463
      (or
      (not
      (and $x3496 $x2599 (or $x126 (= ?x2846 (+ (- 1) E1_!3268))) $x3607
      $x2746)) $x2515)))
    (let (($x2530 (= S2_V3_!3248 S2_V3_!3270)))
    (let (($x3358 (or $x130 $x2568 (= S1_V5_!3246 S1_V5_!3267))))
    (let (($x3334 (or $x128 $x2745 (= S1_V4_!3245 S1_V4_!3266))))
    (let (($x3574 (= E1_!3241 E1_!3268)))
    (let (($x3552 (or $x126 $x3574)))
    (let (($x2340 (or $x124 $x2871 (= S1_V3_!3243 S1_V3_!3264))))
    (let (($x3525 (= S1_V2_!3242 S1_V2_!3263)))
    (let (($x3319 (or $x122 $x2558 $x3525)))
    (let (($x3660 (not (and $x3319 $x2340 $x3552 $x3334 $x3358))))
    (let (($x3143 (= S1_V4_!3266 S1_V4_!3255)))
    (let
    (($x2890
      (or
      (not
      (and $x3451 $x3230 (or (not R_S1_V1) (= E1_!3262 ?x3458)) $x2129
      $x2644)) $x3143)))
    (let (($x2922 (not (or (not R_S1_V1) (= E1_!3262 E1_!3241)))))
    (let (($x3119 (or $x2922 $x2581)))
    (let (($x3385 (= S1_V4_!3255 S1_V4_!3245)))
    (let
    (($x3470
      (and $x3108 $x3413 (or (not R_S1_V1) (= ?x2846 (+ (- 1) E1_!3241)))
      $x3199 $x2904)))
    (let (($x3317 (not $x3470)))
    (let (($x3150 (= S2_V2_!3257 S2_V2_!3269)))
    (let
    (($x3578
      (or
      (not
      (and $x3496 $x2599 (or $x126 (= ?x2846 (+ (- 1) E1_!3268))) $x3607
      $x2746)) $x3150)))
    (let (($x2929 (= S2_V2_!3257 S2_V2_!3247)))
    (let
    (($x2538
      (or
      (not
      (and $x3551 $x2759 (or $x126 (= ?x2846 (+ (- 1) E1_!3241))) $x3646
      $x3547)) $x2929)))
    (let (($x3635 (or $x2922 $x2725)))
    (let (($x2590 (or $x3049 $x3525)))
    (let (($x3526 (= S1_V2_!3242 S1_V2_!3252)))
    (let
    (($x3146
      (or
      (not
      (and $x3451 $x3230 (or (not R_S1_V1) (= E1_!3241 ?x3458)) $x2129
      $x2644)) $x3526)))
    (let (($x3349 (= E1_!3268 E1_!3262)))
    (let (($x65 (not R_E1_V5)))
    (let (($x3637 (or $x65 (= ?x2518 V5_0))))
    (let (($x63 (not R_E1_V4)))
    (let (($x2093 (or $x63 (= ?x3057 V4_0))))
    (let (($x59 (not R_E1_V3)))
    (let (($x3510 (or $x59 (= ?x3415 V3_0))))
    (let (($x57 (not R_E1_V2)))
    (let (($x2774 (or $x57 (= ?x3507 V2_0))))
    (let (($x2573 (= E1_!3262 E1_!3241)))
    (let (($x3533 (= S1_V3_!3264 S1_V3_!3253)))
    (let
    (($x3013
      (or
      (not
      (and $x3451 $x3230 (or (not R_S1_V1) (= E1_!3262 ?x3458)) $x2129
      $x2644)) $x3533)))
    (let (($x3497 (or $x2922 $x3313)))
    (let
    (($x3046
      (and (or $x3317 (= S1_V3_!3253 S1_V3_!3243)) $x3497 $x3013 $x2573
      (or (not (and $x2774 $x3510 $x2093 $x3637)) $x3408)
      (or (not (and $x2774 $x3510 $x2093 $x3637)) $x3349) $x3146 $x2590
      (or $x3437 $x3047) (or $x2878 (= S2_V1_!3249 S2_V1_!3259))
      (or $x3660 (= S2_V1_!3249 S2_V1_!3271))
      (or $x3416 (= S2_V1_!3249 S2_V1_!3276))
      (or $x2516 (= S2_V1_!3271 S2_V1_!3259))
      (or $x2969 (= S2_V1_!3271 S2_V1_!3276))
      (or (not (and $x2452 $x3340 $x2920 $x3145 $x2757))
      (= S2_V1_!3276 S2_V1_!3259)) 
      (or $x3317 (= S1_V5_!3256 S1_V5_!3246)) 
      (or $x3437 $x3191) $x3635 
      (or $x3660 (= S2_V2_!3247 S2_V2_!3269))
      (or $x3416 (= S2_V2_!3247 S2_V2_!3274)) $x2538 $x3578
      (or $x3492 $x2952) (or $x2969 (= S2_V2_!3269 S2_V2_!3274))
      (or $x3317 $x3385) $x3119 $x2890
      (or $x2878 (= S2_V3_!3248 S2_V3_!3258)) 
      (or $x3660 $x2530) (or $x3416 (= S2_V3_!3248 S2_V3_!3275)) $x2463
      (or $x3492 $x3287) $x3129 
      (or $x3416 (= S2_V4_!3250 S2_V4_!3277)) $x3465 
      (or $x3492 $x3278)
      (or (not (and $x2713 $x3600 $x2678 $x3187 $x3610))
      (= S2_V4_!3272 S2_V4_!3250)) 
      (or $x2516 (= S2_V4_!3272 S2_V4_!3260))
      (or $x2969 (= S2_V4_!3272 S2_V4_!3277)) 
      (or $x2878 $x3411) (or $x3416 $x3114)
      (or (not (and $x2713 $x3600 $x2678 $x3187 $x3610)) $x2793)
      (or $x2516 $x2371) (or $x2969 $x2954)
      (or (not (and $x2452 $x3340 $x2920 $x3145 $x2757)) $x2510) $x3486
      $x2441 (or $x3437 $x2849))))
    (or (not $x3046) (not $x3593) (and $x2536 $x2131 $x3285 $x3436 $x2781)))))))))))))))))))))))))))))))))))))))))))))))))))))))))))))))))))))))))))))))))))))))))))))))))))))))))))))))))))))))))))))))))))))))))))))))))))))))))))))))))))))))))))))))))))))))))
 (let (($x18 (or W_S2_V2 W_S2_V3 W_S2_V1 W_S2_V4 W_S2_V5)))
 (let (($x2334 (or W_S1_V2 W_S1_V3 W_S1_V4 W_S1_V5)))
 (let (($x3188 (not W_S2_V1)))
 (let (($x2174 (not W_S2_V2)))
 (let (($x2481 (and $x2174 $x3188)))
 (let
 (($x3515
   (or $x2481 (and (not R_S1_V1) (not R_S1_V4) (not W_S1_V5) (not W_S1_V3))
   (and (not R_S1_V3) (not R_S1_V1) (not W_S1_V5) (not W_S1_V4))
   (and (not R_S1_V3) (not R_S1_V1) (not R_S1_V4) (not W_S1_V5))
   (and (not R_S1_V3) (not R_S1_V1) (not R_S1_V4) (not R_S1_V5))
   (and (not R_S1_V3) (not R_S1_V1) (not R_S1_V5) (not W_S1_V4))
   (and (not R_S1_V1) (not R_S1_V4) (not R_S1_V5) (not W_S1_V3))
   (and (not R_S1_V1) (not R_S1_V5) (not W_S1_V4) (not W_S1_V3)))))
 (let (($x2474 (not W_S1_V1)))
 (let
 (($x2966
   (or (and (not R_E1_V3) (not W_S1_V2) (not W_S1_V5) (not W_S1_V4))
   (and (not R_E1_V3) (not R_E1_V4) (not R_E1_V5) (not W_S1_V2))
   (and (not R_E1_V4) (not R_E1_V5) (not W_S1_V2) (not W_S1_V3))
   (and (not R_E1_V3) (not R_E1_V5) (not W_S1_V2) (not W_S1_V4))
   (and (not R_E1_V5) (not W_S1_V2) (not W_S1_V4) (not W_S1_V3))
   (and (not R_E1_V3) (not R_E1_V4) (not W_S1_V2) (not W_S1_V5))
   (and (not R_E1_V4) (not W_S1_V2) (not W_S1_V5) (not W_S1_V3))
   (and (not W_S1_V2) (not W_S1_V5) (not W_S1_V4) (not W_S1_V3)))))
 (let (($x61 (not R_E1_V1)))
 (and $x61 $x2966 $x2474 $x3515 $x2334 $x18 $x3284))))))))))))
(assert
 (let (($x3188 (not W_S2_V1)))
 (let (($x2174 (not W_S2_V2)))
 (let (($x2481 (and $x2174 $x3188))) (not $x2481)))))
(assert (not (and (not W_S2_V2) (not W_S2_V3) (not W_S2_V5) (not W_S2_V4))))
(assert
 (let (($x3729 (not W_S2_V4)))
 (let (($x3104 (not W_S2_V5)))
 (let (($x2174 (not W_S2_V2)))
 (let (($x126 (not R_S2_V1)))
 (let (($x124 (not R_S2_V3))) (not (and $x124 $x126 $x2174 $x3104 $x3729))))))))
(assert
 (let (($x3729 (not W_S2_V4)))
 (let (($x3104 (not W_S2_V5)))
 (let (($x2871 (not W_S1_V3)))
 (let (($x2174 (not W_S2_V2)))
 (let (($x106 (not R_S1_V3))) (not (and $x106 $x2174 $x2871 $x3104 $x3729))))))))
(assert
 (let (($x3104 (not W_S2_V5)))
 (let (($x2871 (not W_S1_V3)))
 (let (($x2568 (not W_S1_V5)))
 (let (($x2311 (not W_S2_V3)))
 (let (($x2174 (not W_S2_V2)))
 (let (($x128 (not R_S2_V4)))
 (not (and $x128 $x2174 $x2311 $x2568 $x2871 $x3104)))))))))
(assert
 (let (($x3104 (not W_S2_V5)))
 (let (($x2174 (not W_S2_V2)))
 (let (($x128 (not R_S2_V4)))
 (let (($x126 (not R_S2_V1)))
 (let (($x124 (not R_S2_V3))) (not (and $x124 $x126 $x128 $x2174 $x3104))))))))
(assert
 (let (($x2745 (not W_S1_V4)))
 (let (($x2568 (not W_S1_V5)))
 (let (($x2174 (not W_S2_V2)))
 (let (($x124 (not R_S2_V3)))
 (let (($x112 (not R_S1_V5)))
 (let (($x110 (not R_S1_V4)))
 (not (and $x110 $x112 $x124 $x2174 $x2568 $x2745)))))))))
(assert (not (and W_S2_V3 (not R_S2_V3) (not W_S1_V5) (not W_S1_V4))))
(assert
 (let (($x3104 (not W_S2_V5)))
 (let (($x2745 (not W_S1_V4)))
 (let (($x2311 (not W_S2_V3)))
 (let (($x2174 (not W_S2_V2)))
 (let (($x110 (not R_S1_V4))) (not (and $x110 $x2174 $x2311 $x2745 $x3104))))))))
(assert
 (let (($x3104 (not W_S2_V5)))
 (let (($x2871 (not W_S1_V3)))
 (let (($x2745 (not W_S1_V4)))
 (let (($x2174 (not W_S2_V2)))
 (let (($x110 (not R_S1_V4)))
 (let (($x106 (not R_S1_V3)))
 (not (and $x106 $x110 $x2174 $x2745 $x2871 $x3104)))))))))
(assert
 (let (($x3104 (not W_S2_V5)))
 (let (($x2745 (not W_S1_V4)))
 (let (($x2174 (not W_S2_V2)))
 (let (($x124 (not R_S2_V3)))
 (let (($x110 (not R_S1_V4)))
 (let (($x106 (not R_S1_V3)))
 (not (and $x106 $x110 $x124 $x2174 $x2745 $x3104)))))))))
(assert
 (let (($x2568 (not W_S1_V5)))
 (let (($x2174 (not W_S2_V2)))
 (let (($x128 (not R_S2_V4)))
 (let (($x124 (not R_S2_V3)))
 (let (($x112 (not R_S1_V5)))
 (let (($x110 (not R_S1_V4)))
 (let (($x106 (not R_S1_V3)))
 (not (and $x106 $x110 $x112 $x124 $x128 $x2174 $x2568))))))))))
(assert
 (let (($x3104 (not W_S2_V5)))
 (let (($x2174 (not W_S2_V2)))
 (let (($x128 (not R_S2_V4)))
 (let (($x124 (not R_S2_V3)))
 (let (($x110 (not R_S1_V4)))
 (let (($x106 (not R_S1_V3)))
 (not (and $x106 $x110 $x124 $x128 $x2174 $x3104)))))))))
(assert
 (let (($x3104 (not W_S2_V5)))
 (let (($x2311 (not W_S2_V3)))
 (let (($x2174 (not W_S2_V2)))
 (let (($x128 (not R_S2_V4)))
 (let (($x110 (not R_S1_V4))) (not (and $x110 $x128 $x2174 $x2311 $x3104))))))))
(assert
 (let (($x3104 (not W_S2_V5)))
 (let (($x2174 (not W_S2_V2)))
 (let (($x126 (not R_S2_V1)))
 (let (($x124 (not R_S2_V3)))
 (let (($x110 (not R_S1_V4)))
 (let (($x106 (not R_S1_V3)))
 (not (and $x106 $x110 $x124 $x126 $x2174 $x3104)))))))))
(assert
 (let (($x3104 (not W_S2_V5)))
 (let (($x2311 (not W_S2_V3)))
 (let (($x2174 (not W_S2_V2)))
 (let (($x126 (not R_S2_V1)))
 (let (($x110 (not R_S1_V4))) (not (and $x110 $x126 $x2174 $x2311 $x3104))))))))
(assert
 (let (($x3729 (not W_S2_V4)))
 (let (($x3104 (not W_S2_V5)))
 (let (($x2174 (not W_S2_V2)))
 (let (($x124 (not R_S2_V3)))
 (let (($x106 (not R_S1_V3))) (not (and $x106 $x124 $x2174 $x3104 $x3729))))))))
(assert
 (let (($x3729 (not W_S2_V4)))
 (let (($x2871 (not W_S1_V3)))
 (let (($x2745 (not W_S1_V4)))
 (let (($x2311 (not W_S2_V3)))
 (let (($x2174 (not W_S2_V2)))
 (let (($x130 (not R_S2_V5)))
 (not (and $x130 $x2174 $x2311 $x2745 $x2871 $x3729)))))))))
(assert
 (let (($x3729 (not W_S2_V4)))
 (let (($x2174 (not W_S2_V2)))
 (let (($x130 (not R_S2_V5)))
 (let (($x126 (not R_S2_V1)))
 (let (($x124 (not R_S2_V3))) (not (and $x124 $x126 $x130 $x2174 $x3729))))))))
(assert
 (let (($x3729 (not W_S2_V4)))
 (let (($x2871 (not W_S1_V3)))
 (let (($x2745 (not W_S1_V4)))
 (let (($x2174 (not W_S2_V2)))
 (let (($x130 (not R_S2_V5)))
 (let (($x106 (not R_S1_V3)))
 (not (and $x106 $x130 $x2174 $x2745 $x2871 $x3729)))))))))
(assert (not (and W_S2_V5 (not R_S2_V5) (not W_S1_V4) (not W_S1_V3))))
(assert
 (let (($x3729 (not W_S2_V4)))
 (let (($x2311 (not W_S2_V3)))
 (let (($x2174 (not W_S2_V2)))
 (let (($x130 (not R_S2_V5)))
 (let (($x112 (not R_S1_V5))) (not (and $x112 $x130 $x2174 $x2311 $x3729))))))))
(assert
 (let (($x3729 (not W_S2_V4)))
 (let (($x2174 (not W_S2_V2)))
 (let (($x130 (not R_S2_V5)))
 (let (($x124 (not R_S2_V3)))
 (let (($x112 (not R_S1_V5)))
 (let (($x106 (not R_S1_V3)))
 (not (and $x106 $x112 $x124 $x130 $x2174 $x3729)))))))))
(assert
 (let (($x2174 (not W_S2_V2)))
 (let (($x130 (not R_S2_V5)))
 (let (($x128 (not R_S2_V4)))
 (let (($x126 (not R_S2_V1)))
 (let (($x124 (not R_S2_V3))) (not (and $x124 $x126 $x128 $x130 $x2174))))))))
(assert
 (let (($x2311 (not W_S2_V3)))
 (let (($x2174 (not W_S2_V2)))
 (let (($x130 (not R_S2_V5)))
 (let (($x128 (not R_S2_V4)))
 (let (($x126 (not R_S2_V1))) (not (and $x126 $x128 $x130 $x2174 $x2311))))))))
(assert
 (let (($x2745 (not W_S1_V4)))
 (let (($x2174 (not W_S2_V2)))
 (let (($x130 (not R_S2_V5)))
 (let (($x124 (not R_S2_V3)))
 (let (($x112 (not R_S1_V5)))
 (let (($x110 (not R_S1_V4)))
 (let (($x106 (not R_S1_V3)))
 (not (and $x106 $x110 $x112 $x124 $x130 $x2174 $x2745))))))))))
(assert
 (let (($x2745 (not W_S1_V4)))
 (let (($x130 (not R_S2_V5)))
 (let (($x124 (not R_S2_V3))) (not (and W_S2_V3 W_S2_V5 $x124 $x130 $x2745))))))
(assert
 (let (($x2174 (not W_S2_V2)))
 (let (($x130 (not R_S2_V5)))
 (let (($x126 (not R_S2_V1)))
 (let (($x124 (not R_S2_V3)))
 (let (($x112 (not R_S1_V5)))
 (let (($x110 (not R_S1_V4)))
 (let (($x106 (not R_S1_V3)))
 (not (and $x106 $x110 $x112 $x124 $x126 $x130 $x2174))))))))))
(assert
 (let (($x2311 (not W_S2_V3)))
 (let (($x2174 (not W_S2_V2)))
 (let (($x130 (not R_S2_V5)))
 (let (($x126 (not R_S2_V1)))
 (let (($x112 (not R_S1_V5)))
 (let (($x110 (not R_S1_V4)))
 (not (and $x110 $x112 $x126 $x130 $x2174 $x2311)))))))))
(assert
 (let (($x2871 (not W_S1_V3)))
 (let (($x2568 (not W_S1_V5)))
 (let (($x2311 (not W_S2_V3)))
 (let (($x2174 (not W_S2_V2)))
 (let (($x128 (not R_S2_V4)))
 (let (($x112 (not R_S1_V5)))
 (not (and $x112 $x128 $x2174 $x2311 $x2568 $x2871)))))))))
(assert
 (let (($x2311 (not W_S2_V3)))
 (let (($x2174 (not W_S2_V2)))
 (let (($x130 (not R_S2_V5)))
 (let (($x128 (not R_S2_V4)))
 (let (($x112 (not R_S1_V5)))
 (let (($x110 (not R_S1_V4)))
 (not (and $x110 $x112 $x128 $x130 $x2174 $x2311)))))))))
(assert (not (and W_S2_V4 (not R_S2_V4) (not W_S1_V5) (not W_S1_V3))))
(assert
 (let (($x2871 (not W_S1_V3)))
 (let (($x130 (not R_S2_V5)))
 (let (($x128 (not R_S2_V4))) (not (and W_S2_V4 W_S2_V5 $x128 $x130 $x2871))))))
(assert
 (let (($x2174 (not W_S2_V2)))
 (let (($x130 (not R_S2_V5)))
 (let (($x128 (not R_S2_V4)))
 (let (($x124 (not R_S2_V3)))
 (let (($x112 (not R_S1_V5)))
 (let (($x110 (not R_S1_V4)))
 (let (($x106 (not R_S1_V3)))
 (not (and $x106 $x110 $x112 $x124 $x128 $x130 $x2174))))))))))
(assert
 (let (($x130 (not R_S2_V5)))
 (let (($x128 (not R_S2_V4)))
 (let (($x124 (not R_S2_V3)))
 (not (and W_S2_V3 W_S2_V4 W_S2_V5 $x124 $x128 $x130))))))
(assert
 (let (($x2174 (not W_S2_V2)))
 (let (($x128 (not R_S2_V4)))
 (let (($x126 (not R_S2_V1)))
 (let (($x124 (not R_S2_V3)))
 (let (($x112 (not R_S1_V5)))
 (let (($x110 (not R_S1_V4)))
 (let (($x106 (not R_S1_V3)))
 (not (and $x106 $x110 $x112 $x124 $x126 $x128 $x2174))))))))))
(assert
 (let (($x3729 (not W_S2_V4)))
 (let (($x2871 (not W_S1_V3)))
 (let (($x2745 (not W_S1_V4)))
 (let (($x2174 (not W_S2_V2)))
 (let (($x126 (not R_S2_V1)))
 (let (($x124 (not R_S2_V3)))
 (let (($x106 (not R_S1_V3)))
 (not (and $x106 $x124 $x126 $x2174 $x2745 $x2871 $x3729))))))))))
(assert
 (let (($x3729 (not W_S2_V4)))
 (let (($x2174 (not W_S2_V2)))
 (let (($x126 (not R_S2_V1)))
 (let (($x124 (not R_S2_V3)))
 (let (($x112 (not R_S1_V5)))
 (let (($x106 (not R_S1_V3)))
 (not (and $x106 $x112 $x124 $x126 $x2174 $x3729)))))))))
(assert
 (let (($x3729 (not W_S2_V4)))
 (let (($x2745 (not W_S1_V4)))
 (let (($x2568 (not W_S1_V5)))
 (let (($x2174 (not W_S2_V2)))
 (let (($x124 (not R_S2_V3)))
 (let (($x112 (not R_S1_V5)))
 (not (and $x112 $x124 $x2174 $x2568 $x2745 $x3729)))))))))
(assert
 (let (($x3729 (not W_S2_V4)))
 (let (($x2568 (not W_S1_V5)))
 (let (($x2311 (not W_S2_V3)))
 (let (($x2174 (not W_S2_V2)))
 (let (($x112 (not R_S1_V5))) (not (and $x112 $x2174 $x2311 $x2568 $x3729))))))))
(assert
 (let (($x3729 (not W_S2_V4)))
 (let (($x2568 (not W_S1_V5)))
 (let (($x2174 (not W_S2_V2)))
 (let (($x124 (not R_S2_V3)))
 (let (($x112 (not R_S1_V5)))
 (let (($x106 (not R_S1_V3)))
 (not (and $x106 $x112 $x124 $x2174 $x2568 $x3729)))))))))
(assert
 (let (($x2174 (not W_S2_V2)))
 (let (($x126 (not R_S2_V1)))
 (let (($x124 (not R_S2_V3)))
 (let (($x106 (not R_S1_V3)))
 (not (and W_S1_V4 W_S1_V5 $x106 $x124 $x126 $x2174)))))))
(assert
 (let (($x3729 (not W_S2_V4)))
 (let (($x2311 (not W_S2_V3)))
 (let (($x2174 (not W_S2_V2)))
 (let (($x126 (not R_S2_V1)))
 (let (($x112 (not R_S1_V5))) (not (and $x112 $x126 $x2174 $x2311 $x3729))))))))
(assert
 (let (($x2311 (not W_S2_V3)))
 (let (($x2174 (not W_S2_V2)))
 (let (($x126 (not R_S2_V1)))
 (not (and W_S1_V4 W_S1_V5 $x126 $x2174 $x2311))))))
(assert
 (let (($x2871 (not W_S1_V3)))
 (let (($x2745 (not W_S1_V4)))
 (let (($x2311 (not W_S2_V3)))
 (let (($x2174 (not W_S2_V2)))
 (let (($x128 (not R_S2_V4)))
 (let (($x126 (not R_S2_V1)))
 (let (($x110 (not R_S1_V4)))
 (not (and $x110 $x126 $x128 $x2174 $x2311 $x2745 $x2871))))))))))
(assert
 (let (($x3104 (not W_S2_V5)))
 (let (($x2311 (not W_S2_V3)))
 (let (($x2174 (not W_S2_V2)))
 (let (($x128 (not R_S2_V4)))
 (let (($x126 (not R_S2_V1))) (not (and $x126 $x128 $x2174 $x2311 $x3104))))))))
(assert (not (and (not R_S1_V2) (not W_S2_V3) (not W_S2_V5) (not W_S2_V4))))
(check-sat)
(exit)

